1274887
80, 48, 21, 13, 93, 87, 96, 62, 19, 76, 73, 50, 18, 7, 65, 88, 42, 60, 106, 108, 78, 33, 55, 68, 40, 28, 12, 36, 8, 39, 31, 14, 70, 69, 27, 86, 57, 75, 72, 38, 26, 41, 37, 9, 77, 66, 10, 24, 109, 90, 82, 45, 5, 1, 35, 98, 101, 52, 34, 29, 59, 51, 84, 2, 81, 46, 94, 107, 16, 25, 83, 3, 20, 63, 44, 32, 95, 61, 43, 85, 6, 30, 103, 56, 92, 4, 79, 67, 74, 15, 23, 64, 22, 104, 91, 89, 11, 49, 97, 47, 71, 99, 105, 102, 54, 58, 100, 53, 17
